p edge 16
e 0 3
e 0 6
e 1 4
e 1 7
e 1 10
e 1 11
e 1 14
e 1 15
e 2 5
e 2 9
e 2 11
e 2 12
e 2 13
e 2 15
e 3 6
e 3 9
e 3 12
e 4 10
e 4 11
e 5 8
e 5 13
e 5 15
e 6 12
e 6 13
e 7 8
e 7 14
e 7 15
e 8 15
e 9 11
e 9 12
e 10 11
e 10 14
e 11 15
e 12 13
c k 2
